c description: Random 3-CNF over 15 variables and 95 clauses
c generator: CNFgen (0.9.0)
c copyright: (C) 2012-2020 Massimo Lauria <massimo.lauria@uniroma1.it>
c url: https://massimolauria.net/cnfgen
c
p cnf 15 95
-2 8 15 0
-6 -7 10 0
2 -11 -12 0
-6 -8 12 0
-6 -12 13 0
-7 -9 -10 0
-4 -5 -7 0
-9 -12 13 0
-1 -4 -11 0
-2 5 14 0
3 9 -10 0
-2 -8 -14 0
-2 -3 -14 0
1 4 -8 0
6 -8 -14 0
-4 6 -14 0
1 4 -7 0
5 10 -13 0
3 4 -11 0
4 -8 14 0
1 -2 -4 0
1 3 -14 0
-1 -5 -10 0
-4 -12 15 0
1 10 13 0
-1 -2 -10 0
9 10 -14 0
9 11 -13 0
-1 -4 -9 0
-2 -12 15 0
6 -10 12 0
-2 -3 -15 0
-6 -8 11 0
2 -4 13 0
5 9 11 0
-6 8 -11 0
-4 7 9 0
5 -7 11 0
8 -10 12 0
1 4 -10 0
6 -12 15 0
4 11 13 0
1 5 -8 0
9 13 -14 0
4 6 10 0
-4 -10 13 0
5 -11 13 0
-4 -8 13 0
-4 -11 -12 0
1 -3 5 0
-9 -10 -15 0
-4 -5 -12 0
8 12 -14 0
-6 -7 -12 0
-7 8 -11 0
7 12 -14 0
7 8 13 0
10 -11 14 0
-3 -5 -13 0
10 -14 15 0
1 -8 -15 0
11 -12 -13 0
1 3 6 0
5 -6 15 0
-4 -6 -10 0
4 -5 13 0
5 -7 15 0
-1 3 15 0
-2 -10 12 0
-2 5 -11 0
-2 6 -13 0
-12 -14 15 0
4 6 12 0
-2 8 -10 0
4 10 -11 0
6 -10 15 0
1 -7 -12 0
1 5 -10 0
-6 10 -12 0
-1 -5 -14 0
-2 8 11 0
-1 3 -13 0
-2 -9 12 0
2 12 -15 0
3 7 13 0
-2 12 -15 0
3 -5 12 0
6 9 -10 0
-8 -9 11 0
2 -8 -15 0
-2 9 -15 0
-5 -6 9 0
5 -12 13 0
-6 -9 10 0
-1 9 -13 0